30
7
5
1
36 30
100 45
130 50
40 130
70 110
135 100
36 30
100 45
130 50
40 130
70 110
135 100
74 54
110 124
151 121
114 7
75 45
13 132
139 14
100 159
104 117
93 75
55 86
52 42
126 14
11 105
40 72
121 122
112 47
99 92
145 58
33 103
19 122
83 96
141 24
139 54
5 5
85 51
145 12
106 111
28 41
69 54
